(set-logic QF_UF)
(declare-sort Z 0)
(declare-fun circuit () Bool)
(declare-fun input () Bool)
(declare-fun reg () Bool)
(declare-fun flash () Z)
(declare-fun nf () Z)
(declare-fun nf0 () Z)
(assert (not (and (not (= flash nf0)) (= nf nf0))))
(assert (or (not (= (not (not (and (not (= nf0 flash)) (= nf0 nf)))) (and (not (= flash nf0)) (= nf nf0)))) (not (not (not (and (not (= nf0 flash)) (= nf0 nf))))) (and (not (= flash nf0)) (= nf nf0))))
(assert (= (not (not (and (not (= nf0 flash)) (= nf0 nf)))) (and (not (= flash nf0)) (= nf nf0))))
(assert (not (not (and (not (= nf0 flash)) (= nf0 nf)))))
(check-sat)
(exit)
